3087
9670
10040
8191
3153
6445
3932
3418
1930
1617
6073
3942
5795
2826
8993
2219
588
2808
9785
2715
4583
4732
586
4446
6448
8490
7762
4556
6169
9536
7519
1589
9656
3178
7059
3378
4321
3266
7147
8707
9488
1445
5087
10172
9688
419
5499
8010
6876
716
9473
